certificates/rado_a6_c32_N9.cnf
c Rad2 upper bound instance: x1 + 6*x2 - x3 = 32, interval [1,9]
p cnf 9 26
1 5 6 0
-1 -5 -6 0
2 6 0
-2 -6 0
1 3 5 0
-1 -3 -5 0
3 6 7 0
-3 -6 -7 0
2 4 5 0
-2 -4 -5 0
4 6 8 0
-4 -6 -8 0
3 5 0
-3 -5 0
5 6 9 0
-5 -6 -9 0
4 5 6 0
-4 -5 -6 0
5 7 0
-5 -7 0
5 6 8 0
-5 -6 -8 0
1 4 9 0
-1 -4 -9 0
5 7 9 0
-5 -7 -9 0
