certificates/rado_a6_c32_N9.drat
-7 -9 0
-9 0
-6 -5 0
d -1 -6 -5 0
7 0
-5 0
3 0
6 0
0
